c Random generated cnf formula, satisfiable: true
p cnf 10 50
10 5 -1 0
-2 1 -5 0
-10 9 4 0
-2 -6 8 0
-8 7 10 0
5 -6 9 0
-7 -5 8 0
3 -5 -2 0
6 -10 -3 0
-1 7 4 0
2 -10 -9 0
-4 -2 -5 0
-3 7 4 0
1 -8 -2 0
-7 -10 3 0
9 3 8 0
-10 -7 9 0
7 -3 -9 0
-7 -1 2 0
-1 2 8 0
7 -9 -1 0
-9 10 -7 0
-4 2 10 0
7 10 -8 0
-8 2 -9 0
5 -7 9 0
-6 3 -2 0
3 -2 10 0
-8 6 -10 0
-1 4 -7 0
-5 -7 6 0
7 -6 1 0
-4 1 -5 0
-1 -8 -6 0
-3 2 4 0
-6 -10 4 0
4 5 3 0
-4 10 5 0
10 -6 -9 0
4 -3 2 0
1 6 7 0
6 -9 3 0
-5 -10 8 0
1 9 6 0
-7 -1 -2 0
2 -4 -10 0
3 10 6 0
-9 1 7 0
-6 8 -10 0
3 -9 2 0
